29172
1 0 1 0 1 0 1 0 0 1 0 1 0 1 1 0 0 0 1 0 1 0 0 1 1 0 0 1 1 1 
18 6 2 27 2 6 2 27 18 28 4 28 13 13 28 18 13 20 27 0 18 24 23 24 23 18 27 14 29 2 6 4 4 24 27 6 20 9 24 24 18 9 6 4 20 4 13 2 14 14 24 24 24 24 20 6 11 9 18 11 29 0 18 20 13 11 23 14 28 11 18 6 6 9 23 23 20 23 20 24 23 0 9 11 29 13 6 2 27 18 28 6 11 11 2 13 11 6 0 28 28 2 11 18 4 0 4 24 27 13 14 4 27 6 11 20 28 11 14 20 9 11 28 6 9 24 2 11 4 0 28 24 11 20 23 9 13 13 28 14 11 27 11 11 11 2 24 2 27 11 24 0 23 0 20 11 2 2 13 13 13 27 23 24 23 27 23 4 13 2 13 20 28 14 4 2 0 20 29 20 2 2 0 6 11 9 28 23 0 2 0 24 6 4 18 11 18 0 20 14 
